90 89
6 7 8 8 8 8 8 8 8 8 6 6 8 6 6 6 6 6 6 6 6 6 6 6 6 6 6 6 6 6 7 6 6 6 6 7 6 16 6 6 6 6 6 1 1 1 1 1 1 1 1 1 1 1 1 1 1 1 1 1 1 1 1 1 1 1 1 1 1 1 1 1 1 1 1 1 1 1 1 1 1 1 1 1 1 1 1 1 1 1
25 37
37 20
41 12
5 32
9 28
3 22
7 22
2 27
4 27
8 21
6 21
36 1
1 28
35 32
35 11
31 30
41 25
41 42
25 33
42 39
39 40
36 20
36 32
40 22
33 19
29 28
29 16
16 31
19 15
31 27
24 18
24 10
18 0
15 38
11 21
10 23
0 34
38 13
23 26
26 17
17 14
13 14
0 43
0 44
1 45
2 46
3 47
8 48
10 49
10 50
11 51
11 52
12 53
13 54
14 55
15 56
16 57
16 58
17 59
17 60
18 61
18 62
19 63
20 64
20 65
23 66
24 67
24 68
25 69
26 70
29 71
29 72
30 73
30 74
31 75
33 76
34 77
34 78
34 79
35 80
36 81
38 82
39 83
39 84
40 85
40 86
41 87
42 88
42 89
