66 67
6 8 6 8 6 8 8 6 6 6 6 6 6 6 6 6 6 6 6 8 6 6 6 6 6 6 6 8 8 6 1 1 1 1 1 1 1 1 1 1 1 1 1 1 1 1 1 1 1 1 1 1 1 1 1 1 1 1 1 1 1 1 1 1 1 1
18 28
28 14
21 27
22 19
6 14
20 3
5 7
1 7
2 4
2 18
2 16
4 15
4 17
18 25
15 26
15 29
17 13
16 11
16 0
25 21
21 11
26 0
13 22
22 12
12 20
14 23
20 24
23 10
23 9
24 7
10 8
0 30
2 31
3 32
4 33
5 34
8 35
8 36
8 37
9 38
9 39
9 40
10 41
10 42
11 43
12 44
12 45
13 46
13 47
15 48
17 49
17 50
18 51
19 52
20 53
21 54
22 55
23 56
24 57
24 58
25 59
25 60
26 61
27 62
29 63
29 64
29 65
