81 84
6 6 6 6 6 6 6 6 6 6 6 6 6 6 6 6 6 6 6 6 6 6 6 6 6 6 6 6 6 8 6 1 1 1 1 1 1 1 1 1 1 1 1 1 1 1 1 1 1 1 1 1 1 1 1 1 1 1 1 1 1 1 1 1 1 1 1 1 1 1 1 1 1 1 1 1 1 1 1 1 1
9 29
30 25
30 21
30 27
30 15
25 23
25 0
25 8
21 26
21 10
22 18
22 17
22 14
22 7
23 17
23 24
18 13
18 20
17 11
0 26
27 11
13 9
13 5
13 16
24 20
14 28
10 19
10 6
9 28
19 3
3 4
4 12
12 2
12 1
0 31
0 32
1 33
1 34
1 35
2 36
2 37
2 38
3 39
3 40
4 41
5 42
5 43
5 44
6 45
6 46
6 47
7 48
7 49
7 50
8 51
8 52
8 53
9 54
10 55
11 56
11 57
14 58
14 59
15 60
15 61
15 62
16 63
16 64
16 65
18 66
19 67
19 68
20 69
20 70
21 71
24 72
24 73
26 74
26 75
27 76
27 77
28 78
28 79
29 80
