74 73
6 8 6 6 6 6 6 6 6 6 6 6 6 6 6 6 6 6 6 6 6 6 6 6 8 6 1 1 1 1 1 1 1 1 1 1 1 1 1 1 1 1 1 1 1 1 1 1 1 1 1 1 1 1 1 1 1 1 1 1 1 1 1 1 1 1 1 1 1 1 1 1 1 1
24 25
1 25
0 22
0 20
22 18
20 16
18 14
16 12
14 10
12 8
10 6
8 4
6 2
4 3
2 5
3 7
5 9
7 11
9 13
11 15
13 17
15 19
17 21
19 23
21 25
0 26
0 27
2 28
2 29
3 30
3 31
4 32
4 33
5 34
5 35
6 36
6 37
7 38
7 39
8 40
8 41
9 42
9 43
10 44
10 45
11 46
11 47
12 48
12 49
13 50
13 51
14 52
14 53
15 54
15 55
16 56
16 57
17 58
17 59
18 60
18 61
19 62
19 63
20 64
20 65
21 66
21 67
22 68
22 69
23 70
23 71
23 72
24 73
