73 75
6 6 6 6 6 6 6 6 6 6 6 6 6 6 6 6 6 6 6 6 6 6 6 6 6 6 6 6 8 1 1 1 1 1 1 1 1 1 1 1 1 1 1 1 1 1 1 1 1 1 1 1 1 1 1 1 1 1 1 1 1 1 1 1 1 1 1 1 1 1 1 1 1
19 28
26 27
26 21
26 0
26 16
27 12
27 15
21 9
21 13
12 9
0 14
15 24
15 11
13 10
13 25
14 10
11 20
25 5
20 4
5 6
4 22
4 8
6 18
6 23
22 3
22 2
18 19
23 17
23 1
19 7
17 7
0 29
0 30
1 31
1 32
2 33
2 34
2 35
3 36
3 37
3 38
4 39
5 40
7 41
7 42
8 43
8 44
8 45
9 46
9 47
10 48
10 49
11 50
12 51
12 52
14 53
14 54
15 55
16 56
16 57
16 58
17 59
17 60
18 61
18 62
19 63
20 64
21 65
22 66
24 67
24 68
24 69
25 70
27 71
28 72
