67 68
6 6 6 6 7 8 6 6 6 6 6 6 6 6 6 6 6 6 8 8 8 8 6 6 6 6 6 6 6 6 6 9 6 1 1 1 1 1 1 1 1 1 1 1 1 1 1 1 1 1 1 1 1 1 1 1 1 1 1 1 1 1 1 1 1 1 1
31 24
18 25
18 12
27 19
8 20
21 13
5 13
4 2
4 3
2 0
2 29
3 16
3 28
0 23
0 25
16 23
16 14
23 26
28 22
28 6
29 1
29 32
26 7
26 10
14 15
27 30
27 15
30 8
8 9
7 11
10 17
9 13
11 24
17 24
1 33
1 34
1 35
6 36
6 37
6 38
7 39
8 40
9 41
9 42
10 43
11 44
12 45
12 46
12 47
14 48
15 49
17 50
19 51
20 52
21 53
22 54
22 55
22 56
25 57
25 58
27 59
28 60
29 61
30 62
30 63
32 64
32 65
32 66
