80 83
6 6 6 6 6 6 6 6 6 6 6 6 6 6 6 6 6 6 6 6 6 6 6 6 6 6 6 6 6 8 1 1 1 1 1 1 1 1 1 1 1 1 1 1 1 1 1 1 1 1 1 1 1 1 1 1 1 1 1 1 1 1 1 1 1 1 1 1 1 1 1 1 1 1 1 1 1 1 1 1
25 29
27 28
27 13
27 0
27 11
28 22
28 20
22 17
22 26
17 16
17 18
13 19
13 23
0 18
16 9
16 10
16 15
20 19
26 8
23 14
23 12
9 8
9 6
10 21
6 25
14 24
21 25
3 24
3 4
3 5
4 2
4 7
5 1
0 30
0 31
1 32
1 33
1 34
2 35
2 36
2 37
3 38
4 39
5 40
5 41
6 42
6 43
7 44
7 45
7 46
8 47
10 48
10 49
11 50
11 51
11 52
12 53
12 54
12 55
13 56
14 57
14 58
15 59
15 60
15 61
17 62
18 63
18 64
19 65
19 66
20 67
20 68
21 69
21 70
22 71
23 72
24 73
24 74
25 75
26 76
26 77
28 78
29 79
