96 95
6 6 6 6 6 6 6 6 6 6 6 6 6 6 6 6 6 6 6 6 6 6 6 6 6 6 6 6 6 6 6 6 6 6 6 6 6 6 6 6 1 1 1 1 1 1 1 1 1 1 1 1 1 1 1 1 1 1 1 1 1 1 1 1 1 1 1 1 1 1 1 1 1 1 1 1 1 1 1 1 1 1 1 1 1 1 1 1 1 1 1 1 1 1 1 1
14 16
14 36
15 17
15 37
16 24
17 25
36 38
36 28
37 39
37 29
24 10
25 11
10 18
10 19
11 30
11 31
28 20
29 21
20 6
21 7
6 34
7 35
34 26
34 12
35 27
35 13
12 2
13 3
2 0
3 1
0 8
1 9
8 32
8 22
9 33
9 23
32 4
33 5
4 5
0 40
1 41
2 42
3 43
4 44
5 45
6 46
7 47
12 48
13 49
14 50
14 51
15 52
15 53
16 54
16 55
17 56
17 57
18 58
18 59
18 60
19 61
19 62
19 63
20 64
21 65
22 66
22 67
22 68
23 69
23 70
23 71
24 72
25 73
26 74
26 75
26 76
27 77
27 78
27 79
28 80
29 81
30 82
30 83
30 84
31 85
31 86
31 87
32 88
33 89
38 90
38 91
38 92
39 93
39 94
39 95
