73 77
6 6 6 6 8 8 8 8 8 8 6 8 8 8 6 6 6 6 6 6 6 6 6 6 6 8 6 6 6 6 6 6 6 6 6 6 8 8 8 8 6 1 1 1 1 1 1 1 1 1 1 1 1 1 1 1 1 1 1 1 1 1 1 1 1 1 1 1 1 1 1 1 1
28 25
24 25
12 10
12 3
9 24
9 34
10 13
13 35
27 11
33 8
2 5
1 6
0 7
4 40
38 30
38 23
39 20
36 18
37 14
28 27
28 10
27 33
33 3
24 2
2 1
3 40
1 0
0 34
34 26
35 32
35 29
32 30
29 20
30 31
31 20
31 18
23 17
23 22
17 18
22 16
22 19
16 21
19 15
21 14
15 14
0 41
1 42
2 43
3 44
4 45
5 46
6 47
7 48
8 49
10 50
11 51
15 52
16 53
17 54
17 55
19 56
21 57
23 58
24 59
26 60
26 61
26 62
27 63
28 64
29 65
32 66
33 67
34 68
37 69
39 70
40 71
40 72
