190 190
8 15 17 17 17 6 7 7 7 7 7 7 7 6 6 7 7 6 6 7 27 6 6 6 6 7 7 6 8 7 8 8 6 6 6 6 6 6 6 6 6 6 6 8 8 6 6 6 8 6 6 6 6 6 6 6 6 6 6 6 6 8 8 6 6 6 8 6 6 6 6 6 8 8 6 6 6 6 6 6 6 8 6 6 6 6 6 6 6 6 6 6 6 6 8 8 46 1 1 1 1 1 1 1 1 1 1 1 1 1 1 1 1 1 1 1 1 1 1 1 1 1 1 1 1 1 1 1 1 1 1 1 1 1 1 1 1 1 1 1 1 1 1 1 1 1 1 1 1 1 1 1 1 1 1 1 1 1 1 1 1 1 1 1 1 1 1 1 1 1 1 1 1 1 1 1 1 1 1 1 1 1 1 1 1 1 1 1 1 1
1 73
1 66
1 48
1 44
0 24
61 27
62 56
95 63
94 93
81 89
72 87
73 80
66 83
43 85
43 58
30 82
31 59
26 18
26 75
29 91
29 53
25 33
25 70
11 22
11 57
12 24
9 27
7 56
7 92
10 63
6 93
8 89
16 87
15 58
15 37
15 38
19 38
19 36
18 71
18 91
18 77
71 88
71 51
71 86
91 90
90 74
90 68
88 75
88 67
74 53
74 46
74 45
75 65
51 24
53 47
67 41
68 27
46 23
65 33
65 78
47 22
47 79
41 63
23 56
21 33
21 13
21 76
21 52
22 17
17 14
17 69
13 70
13 64
14 57
14 49
14 50
70 40
57 40
76 93
69 55
64 42
55 89
42 87
92 80
80 84
83 82
83 85
82 58
85 59
37 36
37 32
36 60
32 54
60 39
54 39
54 35
39 34
5 97
5 98
5 99
6 100
6 101
7 102
8 103
8 104
9 105
9 106
10 107
10 108
12 109
12 110
13 111
16 112
16 113
17 114
23 115
23 116
28 117
28 118
30 119
31 120
32 121
34 122
34 123
34 124
35 125
35 126
35 127
38 128
40 129
41 130
41 131
42 132
42 133
45 134
45 135
45 136
46 137
46 138
49 139
49 140
49 141
50 142
50 143
50 144
51 145
51 146
52 147
52 148
52 149
55 150
55 151
58 152
59 153
59 154
60 155
64 156
64 157
67 158
67 159
68 160
68 161
69 162
69 163
76 164
76 165
77 166
77 167
77 168
78 169
78 170
78 171
79 172
79 173
79 174
80 175
82 176
83 177
84 178
84 179
84 180
85 181
86 182
86 183
86 184
88 185
90 186
91 187
92 188
92 189
