96 97
6 6 6 6 6 6 6 6 6 6 6 6 6 6 6 6 6 6 6 6 6 6 6 6 6 6 6 6 6 6 6 6 6 6 6 6 6 6 6 6 1 1 1 1 1 1 1 1 1 1 1 1 1 1 1 1 1 1 1 1 1 1 1 1 1 1 1 1 1 1 1 1 1 1 1 1 1 1 1 1 1 1 1 1 1 1 1 1 1 1 1 1 1 1 1 1
34 24
34 12
34 28
34 29
35 25
35 13
35 30
35 31
24 18
25 19
18 14
19 15
12 38
12 20
13 39
13 21
14 38
15 39
38 16
39 17
20 36
21 37
36 26
37 27
26 4
26 8
27 5
27 9
8 2
9 3
2 32
3 33
32 22
33 23
22 10
22 6
23 11
23 7
6 0
7 1
0 1
0 40
1 41
2 42
3 43
4 44
4 45
4 46
5 47
5 48
5 49
6 50
7 51
8 52
9 53
10 54
10 55
10 56
11 57
11 58
11 59
14 60
14 61
15 62
15 63
16 64
16 65
16 66
17 67
17 68
17 69
18 70
18 71
19 72
19 73
20 74
21 75
24 76
24 77
25 78
25 79
28 80
28 81
28 82
29 83
29 84
29 85
30 86
30 87
30 88
31 89
31 90
31 91
32 92
33 93
36 94
37 95
