71 74
6 7 7 6 6 6 6 6 6 6 6 6 6 6 6 6 6 6 6 6 6 6 6 6 6 6 7 6 6 8 8 6 6 8 1 1 1 1 1 1 1 1 1 1 1 1 1 1 1 1 1 1 1 1 1 1 1 1 1 1 1 1 1 1 1 1 1 1 1 1 1
33 12
33 4
29 3
30 3
2 27
2 28
2 19
1 20
1 18
1 13
26 20
26 7
25 21
25 22
25 20
21 27
22 28
19 32
32 8
18 7
18 9
13 12
7 10
8 15
8 5
9 17
10 23
15 11
5 16
0 31
0 11
0 16
31 14
31 6
31 3
17 23
4 24
4 34
4 35
5 36
6 37
6 38
6 39
9 40
10 41
11 42
12 43
12 44
13 45
13 46
14 47
14 48
14 49
15 50
16 51
17 52
19 53
19 54
21 55
21 56
22 57
22 58
23 59
24 60
24 61
24 62
25 63
27 64
27 65
28 66
28 67
29 68
32 69
32 70
