65 67
6 6 6 6 8 6 6 6 6 6 6 6 6 6 6 6 6 8 6 8 6 6 6 6 6 6 6 8 8 1 1 1 1 1 1 1 1 1 1 1 1 1 1 1 1 1 1 1 1 1 1 1 1 1 1 1 1 1 1 1 1 1 1 1 1
16 28
28 21
19 25
19 8
12 27
17 21
4 8
3 2
3 16
3 13
2 15
2 23
16 14
15 10
15 0
13 26
13 1
23 11
14 20
20 26
20 22
25 11
10 1
25 9
9 12
12 18
21 24
18 8
24 7
24 6
7 5
0 29
0 30
0 31
1 32
2 33
3 34
5 35
5 36
5 37
6 38
6 39
6 40
7 41
7 42
9 43
9 44
10 45
11 46
11 47
12 48
14 49
14 50
15 51
16 52
18 53
18 54
20 55
22 56
22 57
22 58
23 59
23 60
24 61
25 62
26 63
27 64
