81 82
6 6 6 6 6 6 6 6 6 6 6 6 6 6 6 6 6 6 6 6 6 6 6 6 6 6 8 6 8 6 6 1 1 1 1 1 1 1 1 1 1 1 1 1 1 1 1 1 1 1 1 1 1 1 1 1 1 1 1 1 1 1 1 1 1 1 1 1 1 1 1 1 1 1 1 1 1 1 1 1 1
28 27
28 24
26 19
27 29
27 30
27 12
29 22
30 1
22 10
16 10
16 20
16 9
1 5
20 8
5 24
5 3
8 17
24 4
17 14
14 7
14 18
7 0
3 19
3 13
4 21
4 25
0 23
21 19
21 15
23 11
11 6
11 2
0 31
0 32
1 33
1 34
2 35
2 36
2 37
6 38
6 39
6 40
7 41
7 42
8 43
8 44
9 45
9 46
9 47
10 48
10 49
11 50
12 51
12 52
12 53
13 54
13 55
13 56
14 57
15 58
15 59
15 60
16 61
17 62
17 63
18 64
18 65
18 66
20 67
20 68
22 69
22 70
23 71
23 72
25 73
25 74
25 75
26 76
29 77
29 78
30 79
30 80
