78 85
6 7 8 8 8 6 6 6 6 6 6 6 6 6 6 6 6 6 6 6 8 6 6 6 6 6 6 6 7 6 6 6 8 6 6 6 6 6 6 7 7 6 7 1 1 1 1 1 1 1 1 1 1 1 1 1 1 1 1 1 1 1 1 1 1 1 1 1 1 1 1 1 1 1 1 1 1 1
32 33
32 15
33 20
4 27
2 19
3 9
1 41
1 37
1 27
28 33
28 36
28 19
15 42
42 9
39 7
39 23
39 35
40 22
40 13
41 33
41 34
34 38
36 27
36 12
37 38
15 19
15 25
12 0
14 9
14 23
14 26
7 17
7 18
0 31
0 21
17 26
17 24
18 30
24 29
24 10
30 29
30 13
29 22
31 5
21 6
22 8
10 16
8 16
5 11
6 11
5 43
6 44
7 45
8 46
10 47
11 48
12 49
12 50
13 51
14 52
16 53
18 54
18 55
20 56
21 57
23 58
23 59
25 60
25 61
25 62
26 63
31 64
34 65
34 66
35 67
35 68
35 69
36 70
37 71
37 72
38 73
38 74
40 75
41 76
42 77
