116 124
6 7 6 8 8 6 8 6 8 7 6 6 6 6 6 6 6 6 6 6 6 6 6 6 6 6 6 7 6 6 8 6 7 6 6 6 6 6 6 6 6 8 8 6 6 6 6 6 6 6 6 8 6 6 6 6 8 8 6 6 1 1 1 1 1 1 1 1 1 1 1 1 1 1 1 1 1 1 1 1 1 1 1 1 1 1 1 1 1 1 1 1 1 1 1 1 1 1 1 1 1 1 1 1 1 1 1 1 1 1 1 1 1 1 1 1
54 56
56 0
29 30
57 47
57 33
42 47
51 13
41 2
41 17
4 0
6 34
6 16
8 34
52 3
59 9
9 49
9 53
31 1
1 22
1 13
32 38
32 50
32 20
27 40
27 12
24 59
24 31
24 55
24 48
59 58
58 54
58 44
58 26
31 29
29 54
29 47
55 49
48 22
48 37
44 23
26 43
22 19
53 43
37 7
19 2
7 2
7 5
5 36
5 40
5 34
0 25
28 36
40 45
28 21
28 38
21 52
45 39
45 15
52 50
52 10
39 20
15 12
15 11
12 46
10 35
11 18
46 14
18 14
3 60
10 61
10 62
11 63
13 64
14 65
16 66
16 67
16 68
17 69
17 70
17 71
18 72
19 73
20 74
20 75
21 76
21 77
23 78
23 79
23 80
25 81
25 82
25 83
26 84
27 85
28 86
30 87
31 88
33 89
33 90
33 91
35 92
35 93
35 94
36 95
36 96
37 97
38 98
38 99
39 100
39 101
43 102
44 103
44 104
46 105
49 106
49 107
50 108
50 109
53 110
53 111
54 112
55 113
55 114
59 115
