75 81
6 6 6 6 6 6 6 6 6 6 6 6 6 6 6 6 6 6 6 6 6 6 6 6 7 6 6 6 6 8 6 8 8 8 1 1 1 1 1 1 1 1 1 1 1 1 1 1 1 1 1 1 1 1 1 1 1 1 1 1 1 1 1 1 1 1 1 1 1 1 1 1 1 1 1
25 29
29 26
30 31
31 7
14 32
33 11
24 16
24 0
24 19
3 2
3 28
3 16
3 18
2 25
2 13
2 12
30 25
30 27
30 21
27 28
27 14
16 10
18 21
13 0
12 1
12 26
10 1
14 20
14 23
1 9
26 11
19 15
20 17
20 5
20 6
15 8
15 4
9 22
11 22
8 4
0 34
0 35
4 36
4 37
5 38
5 39
5 40
6 41
6 42
6 43
7 44
7 45
7 46
8 47
8 48
9 49
10 50
10 51
13 52
13 53
15 54
16 55
17 56
17 57
17 58
18 59
18 60
19 61
19 62
21 63
21 64
22 65
23 66
23 67
23 68
25 69
27 70
28 71
28 72
32 73
33 74
