67 66
6 7 8 8 8 8 8 6 6 6 6 6 6 6 6 6 6 6 6 6 6 6 6 6 16 6 6 6 6 6 1 1 1 1 1 1 1 1 1 1 1 1 1 1 1 1 1 1 1 1 1 1 1 1 1 1 1 1 1 1 1 1 1 1 1 1 1
29 24
24 23
27 6
3 16
5 16
2 11
4 11
12 1
27 22
27 29
22 17
29 25
17 28
28 16
25 19
23 12
12 11
26 20
26 15
20 10
19 13
15 8
10 0
13 14
8 18
18 21
21 7
14 9
7 9
0 30
0 31
0 32
1 33
1 34
2 35
3 36
6 37
7 38
8 39
9 40
10 41
10 42
12 43
13 44
14 45
15 46
15 47
17 48
17 49
18 50
19 51
20 52
20 53
21 54
21 55
22 56
22 57
23 58
23 59
25 60
26 61
26 62
27 63
28 64
28 65
29 66
