74 77
6 6 6 6 6 6 6 6 6 6 6 6 6 6 6 6 6 6 6 6 6 6 6 6 6 6 8 6 1 1 1 1 1 1 1 1 1 1 1 1 1 1 1 1 1 1 1 1 1 1 1 1 1 1 1 1 1 1 1 1 1 1 1 1 1 1 1 1 1 1 1 1 1 1
12 26
27 22
27 0
27 16
27 9
22 17
22 24
17 13
17 20
13 23
13 19
0 18
0 11
16 19
23 10
23 8
23 6
24 18
20 15
11 21
11 3
10 15
10 14
8 25
14 12
25 12
21 4
4 5
5 2
2 7
2 1
0 28
1 29
1 30
1 31
2 32
3 33
3 34
3 35
4 36
4 37
5 38
5 39
6 40
6 41
6 42
7 43
7 44
7 45
8 46
8 47
9 48
9 49
9 50
11 51
12 52
13 53
14 54
14 55
15 56
16 57
16 58
17 59
18 60
18 61
19 62
19 63
20 64
20 65
21 66
21 67
22 68
24 69
24 70
25 71
25 72
26 73
