73 74
6 6 6 6 6 6 6 6 6 6 6 6 6 6 6 6 6 6 6 6 6 6 6 6 6 6 6 6 6 6 6 8 8 1 1 1 1 1 1 1 1 1 1 1 1 1 1 1 1 1 1 1 1 1 1 1 1 1 1 1 1 1 1 1 1 1 1 1 1 1 1 1 1
31 25
32 18
26 22
26 0
22 12
20 1
20 11
20 25
23 27
23 17
1 29
0 29
0 5
27 12
27 6
17 9
11 18
11 19
28 25
28 24
28 14
24 18
24 30
21 9
21 3
21 16
3 2
2 8
14 7
30 10
8 4
7 10
4 15
4 13
1 33
1 34
2 35
2 36
3 37
3 38
5 39
5 40
5 41
6 42
6 43
6 44
7 45
8 46
9 47
10 48
12 49
13 50
13 51
13 52
14 53
15 54
15 55
15 56
16 57
16 58
16 59
17 60
17 61
19 62
19 63
19 64
22 65
22 66
23 67
23 68
26 69
26 70
29 71
30 72
