74 80
6 6 6 6 8 8 6 8 6 6 6 6 8 6 6 6 6 6 6 6 6 6 6 6 6 6 6 8 8 8 6 6 8 8 6 6 6 8 6 8 8 8 1 1 1 1 1 1 1 1 1 1 1 1 1 1 1 1 1 1 1 1 1 1 1 1 1 1 1 1 1 1 1 1
40 8
40 0
41 6
41 2
39 0
39 31
4 22
4 21
12 2
5 20
7 17
7 21
33 30
32 18
32 23
27 38
27 23
28 15
28 24
37 16
37 14
29 25
19 1
19 8
19 6
1 9
1 2
8 10
9 11
9 3
10 11
10 35
11 36
0 20
3 34
3 26
20 30
22 30
22 31
31 17
35 18
36 38
18 38
34 16
26 15
21 13
15 25
16 25
0 42
1 43
5 44
6 45
6 46
8 47
9 48
13 49
13 50
13 51
14 52
14 53
14 54
17 55
17 56
19 57
20 58
21 59
22 60
23 61
23 62
24 63
24 64
24 65
26 66
29 67
30 68
31 69
33 70
34 71
35 72
36 73
