66 68
6 6 6 8 8 6 8 8 8 8 8 8 8 8 8 8 6 6 6 6 6 6 6 6 6 8 8 6 6 6 8 6 6 8 1 1 1 1 1 1 1 1 1 1 1 1 1 1 1 1 1 1 1 1 1 1 1 1 1 1 1 1 1 1 1 1
5 15
0 15
13 5
13 32
10 0
10 20
14 24
28 14
2 9
11 28
11 17
1 7
22 12
27 8
19 6
4 31
21 33
29 26
30 23
18 25
3 16
5 2
5 31
2 1
1 32
0 22
32 23
22 27
20 19
20 24
27 19
28 21
21 29
29 18
18 17
17 16
0 34
1 35
2 36
3 37
4 38
6 39
7 40
8 41
9 42
12 43
16 44
16 45
17 46
18 47
19 48
20 49
21 50
22 51
23 52
23 53
24 54
24 55
25 56
26 57
27 58
28 59
29 60
30 61
31 62
31 63
32 64
33 65
