73 77
6 6 6 8 8 6 8 8 8 8 6 8 8 8 8 8 6 6 6 6 6 6 6 6 6 6 6 8 6 6 6 6 6 6 6 6 8 8 8 6 6 8 6 1 1 1 1 1 1 1 1 1 1 1 1 1 1 1 1 1 1 1 1 1 1 1 1 1 1 1 1 1 1
27 35
27 32
0 11
11 42
13 0
13 40
25 15
1 14
32 12
12 28
2 9
5 3
10 7
39 6
8 34
8 26
4 30
37 16
41 20
36 19
38 18
35 25
35 42
25 1
1 2
2 32
5 0
5 10
10 39
39 40
40 29
28 34
28 30
34 31
30 33
33 26
33 16
31 24
31 23
26 21
16 17
21 20
24 19
23 22
17 20
19 18
22 18
0 43
1 44
2 45
3 46
5 47
6 48
7 49
9 50
10 51
14 52
15 53
17 54
21 55
22 56
23 57
24 58
25 59
29 60
29 61
29 62
32 63
35 64
36 65
37 66
38 67
39 68
40 69
41 70
42 71
42 72
