88 91
6 7 6 7 7 8 7 6 6 6 6 6 6 6 6 6 6 6 8 8 6 6 6 6 6 8 6 6 6 6 6 6 6 8 6 6 6 6 6 6 6 8 6 16 1 1 1 1 1 1 1 1 1 1 1 1 1 1 1 1 1 1 1 1 1 1 1 1 1 1 1 1 1 1 1 1 1 1 1 1 1 1 1 1 1 1 1 1
43 42
41 32
33 22
25 22
19 21
18 21
5 15
3 0
3 32
6 23
6 7
1 35
1 37
4 29
4 15
2 0
2 34
2 42
0 28
34 32
34 31
28 23
42 24
23 14
14 10
14 39
10 7
10 8
7 9
9 35
8 16
35 40
40 36
40 38
16 22
36 37
36 17
37 30
38 26
30 29
26 21
29 20
20 27
20 12
27 15
27 13
13 11
0 44
1 45
2 46
3 47
6 48
8 49
8 50
9 51
9 52
11 53
11 54
11 55
12 56
12 57
12 58
13 59
13 60
16 61
16 62
17 63
17 64
17 65
19 66
24 67
24 68
24 69
26 70
26 71
28 72
28 73
30 74
30 75
31 76
31 77
31 78
33 79
34 80
38 81
38 82
39 83
39 84
39 85
42 86
43 87
