113 119
6 6 6 7 8 6 8 6 8 8 8 8 8 8 6 6 6 6 6 6 6 6 6 6 6 6 6 6 8 6 6 6 8 8 8 6 6 8 6 6 6 6 8 6 6 6 6 6 6 6 6 6 6 6 6 6 6 6 6 6 6 6 1 1 1 1 1 1 1 1 1 1 1 1 1 1 1 1 1 1 1 1 1 1 1 1 1 1 1 1 1 1 1 1 1 1 1 1 1 1 1 1 1 1 1 1 1 1 1 1 1 1 1
42 59
42 57
48 37
37 5
60 34
34 0
46 28
47 32
51 33
33 1
10 58
22 8
8 38
13 5
9 0
11 1
6 38
52 12
4 41
31 3
3 41
61 48
61 56
61 60
48 59
48 57
56 47
56 58
56 50
59 53
60 46
46 54
46 43
47 53
54 44
54 26
54 14
58 51
43 22
44 51
44 24
22 24
24 7
5 2
0 35
1 36
38 52
35 39
35 25
52 31
39 27
25 55
31 49
27 40
55 40
49 30
49 29
30 45
29 18
41 21
45 15
18 15
21 19
21 16
19 17
16 23
17 20
23 20
2 62
2 63
2 64
3 65
7 66
7 67
7 68
12 69
14 70
14 71
14 72
15 73
16 74
17 75
18 76
19 77
20 78
22 79
23 80
25 81
26 82
26 83
26 84
27 85
28 86
29 87
30 88
31 89
32 90
36 91
36 92
36 93
39 94
40 95
43 96
43 97
45 98
47 99
50 100
50 101
50 102
51 103
52 104
53 105
53 106
55 107
57 108
57 109
59 110
60 111
61 112
