79 80
6 6 6 6 6 6 6 6 6 6 6 6 6 6 6 6 6 6 6 6 8 6 6 6 6 6 6 6 8 6 6 6 6 1 1 1 1 1 1 1 1 1 1 1 1 1 1 1 1 1 1 1 1 1 1 1 1 1 1 1 1 1 1 1 1 1 1 1 1 1 1 1 1 1 1 1 1 1 1
20 24
28 22
16 17
16 0
16 30
17 11
13 1
13 19
13 12
11 1
0 32
19 29
32 31
31 9
29 5
9 15
9 21
5 10
10 8
10 7
8 6
6 3
3 27
3 24
27 22
27 26
24 18
18 23
18 25
23 22
23 14
25 4
14 2
4 2
0 33
0 34
1 35
1 36
2 37
4 38
5 39
5 40
6 41
6 42
7 43
7 44
7 45
8 46
9 47
11 48
11 49
12 50
12 51
12 52
13 53
14 54
15 55
15 56
15 57
16 58
17 59
17 60
19 61
19 62
21 63
21 64
21 65
25 66
26 67
26 68
26 69
29 70
29 71
30 72
30 73
30 74
31 75
31 76
32 77
32 78
