584 593
7 7 7 7 7 7 7 7 7 7 7 7 8 7 8 8 7 8 7 7 8 7 8 7 8 8 7 8 8 7 7 8 8 7 7 8 8 7 8 8 7 7 8 8 7 8 8 8 7 8 8 8 8 8 8 7 8 7 6 6 6 6 6 6 6 6 6 8 6 6 8 6 6 6 6 6 6 6 6 8 6 6 6 6 6 6 6 6 6 6 6 6 6 6 8 6 8 6 6 8 8 6 6 8 6 8 8 6 6 6 6 6 6 6 6 6 6 6 6 6 6 6 6 6 6 6 6 6 6 6 6 6 6 6 6 6 6 6 6 6 6 8 6 6 6 6 6 6 6 6 8 7 7 6 6 8 8 6 6 6 7 7 6 6 6 6 6 6 6 6 6 6 6 6 6 6 6 6 6 6 6 6 6 6 8 8 6 6 8 6 8 6 6 6 6 6 6 6 6 6 6 6 7 7 6 6 7 7 6 6 6 7 6 6 6 6 6 6 6 7 7 6 6 6 6 6 8 8 6 8 8 6 6 6 6 6 6 6 6 6 7 7 6 8 8 6 6 6 6 6 6 6 6 6 6 6 6 6 6 6 8 8 8 6 6 6 6 6 6 6 6 6 6 6 7 7 6 6 6 6 6 7 7 6 6 6 7 6 6 7 6 6 6 7 7 7 7 6 8 8 8 1 1 1 1 1 1 1 1 1 1 1 1 1 1 1 1 1 1 1 1 1 1 1 1 1 1 1 1 1 1 1 1 1 1 1 1 1 1 1 1 1 1 1 1 1 1 1 1 1 1 1 1 1 1 1 1 1 1 1 1 1 1 1 1 1 1 1 1 1 1 1 1 1 1 1 1 1 1 1 1 1 1 1 1 1 1 1 1 1 1 1 1 1 1 1 1 1 1 1 1 1 1 1 1 1 1 1 1 1 1 1 1 1 1 1 1 1 1 1 1 1 1 1 1 1 1 1 1 1 1 1 1 1 1 1 1 1 1 1 1 1 1 1 1 1 1 1 1 1 1 1 1 1 1 1 1 1 1 1 1 1 1 1 1 1 1 1 1 1 1 1 1 1 1 1 1 1 1 1 1 1 1 1 1 1 1 1 1 1 1 1 1 1 1 1 1 1 1 1 1 1 1 1 1 1 1 1 1 1 1 1 1 1 1 1 1 1 1 1 1 1 1 1 1 1 1 1 1 1 1 1 1 1 1 1 1 1 1 1 1 1 1 1 1 1 1 1 1 1 1 1 1 1 1 1 1 1 1 1 1 1 1 1 1 1 1 1 1 1 1 1 1 1 1 1 1 1 1 1 1 1 1 1
300 110
299 118
298 170
233 190
261 273
262 254
243 175
244 269
184 236
185 178
150 186
226 130
227 124
229 126
230 104
155 80
156 65
260 69
141 87
188 86
70 86
99 78
100 78
67 89
96 89
94 85
105 84
106 84
103 72
79 60
52 58
53 149
12 180
51 204
49 225
24 259
22 192
114 20
46 221
27 113
14 287
56 198
17 264
15 205
54 179
43 276
47 179
42 285
45 163
35 246
39 263
32 195
38 138
25 116
50 120
31 145
36 222
28 61
18 277
18 134
18 110
48 125
48 194
48 170
30 118
267 30
7 148
7 166
7 236
268 33
33 269
133 34
34 254
13 255
13 215
13 130
40 273
40 132
196 5
5 178
29 175
147 29
247 9
9 80
6 126
95 6
1 124
4 104
76 4
101 11
11 69
8 111
0 87
91 0
2 85
71 2
10 72
66 10
23 60
81 23
21 58
278 21
19 98
19 174
44 149
265 44
26 180
250 26
57 174
55 174
280 41
41 204
158 16
16 192
37 225
181 37
176 3
3 221
224 211
211 113
206 259
136 206
129 207
207 264
139 289
289 287
187 295
295 276
283 296
296 205
251 281
281 285
282 163
245 282
172 240
240 263
241 246
160 199
160 208
161 195
293 120
128 293
294 238
294 144
274 138
275 116
219 183
219 144
220 235
220 182
202 208
203 208
151 222
152 182
286 182
277 257
277 118
257 193
193 134
125 284
125 273
110 268
284 266
268 154
194 266
267 233
267 254
133 170
133 252
148 288
148 175
154 248
288 168
168 166
233 165
252 191
255 223
255 178
223 201
248 124
201 215
269 196
196 186
236 247
247 109
191 115
191 135
147 123
147 126
123 117
123 107
130 111
132 104
115 62
135 102
80 101
101 68
62 65
102 65
95 97
95 87
76 69
76 93
97 90
68 86
93 78
90 89
91 77
91 85
77 84
71 92
71 72
92 75
75 74
75 63
66 88
66 60
88 59
88 82
59 64
81 83
81 58
83 73
73 98
278 279
278 149
279 272
272 171
272 256
265 173
265 180
173 157
171 290
256 167
157 271
157 197
290 258
167 258
158 249
158 204
280 253
280 225
250 169
250 259
249 137
249 216
253 153
253 242
224 239
224 221
239 228
228 200
228 297
176 192
176 127
271 121
197 292
181 114
181 287
169 179
129 140
129 205
187 113
187 291
140 146
136 264
136 143
114 159
127 246
146 270
146 231
139 164
139 163
121 198
292 198
283 237
283 285
251 276
251 217
164 142
291 234
143 195
237 210
217 232
142 199
245 214
245 263
234 177
234 162
210 138
232 116
214 238
172 218
172 120
218 189
177 212
162 213
238 183
189 235
212 145
213 145
128 209
128 222
209 119
119 131
119 122
131 108
122 112
108 61
112 61
0 301
1 302
1 303
2 304
3 305
4 306
5 307
6 308
8 309
8 310
9 311
10 312
11 313
16 314
19 315
20 316
21 317
23 318
26 319
28 320
29 321
30 322
31 323
33 324
34 325
37 326
40 327
41 328
44 329
54 330
55 331
56 332
57 333
57 334
59 335
59 336
62 337
63 338
63 339
63 340
64 341
64 342
64 343
66 344
67 345
68 346
68 347
71 348
73 349
73 350
74 351
74 352
74 353
75 354
76 355
77 356
77 357
81 358
82 359
82 360
82 361
83 362
83 363
88 364
90 365
90 366
91 367
92 368
92 369
93 370
93 371
95 372
97 373
97 374
98 375
98 376
99 377
101 378
102 379
105 380
107 381
107 382
107 383
108 384
109 385
109 386
109 387
111 388
111 389
112 390
114 391
115 392
117 393
117 394
117 395
121 396
122 397
123 398
125 399
127 400
127 401
128 402
129 403
131 404
132 405
132 406
133 407
134 408
134 409
135 410
136 411
137 412
137 413
137 414
139 415
140 416
140 417
142 418
142 419
143 420
143 421
144 422
146 423
147 424
148 425
150 426
151 427
151 428
152 429
152 430
153 431
153 432
153 433
154 434
154 435
156 436
158 437
159 438
159 439
159 440
160 441
161 442
161 443
162 444
164 445
164 446
165 447
165 448
165 449
166 450
166 451
167 452
168 453
168 454
169 455
169 456
171 457
172 458
173 459
173 460
176 461
177 462
181 463
183 464
186 465
186 466
187 467
188 468
189 469
189 470
190 471
193 472
193 473
194 474
194 475
196 476
197 477
199 478
199 479
200 480
200 481
200 482
201 483
201 484
202 485
202 486
203 487
206 488
207 489
209 490
209 491
210 492
210 493
211 494
212 495
213 496
214 497
214 498
215 499
215 500
216 501
216 502
216 503
217 504
217 505
218 506
218 507
220 508
223 509
223 510
224 511
228 512
231 513
231 514
231 515
232 516
232 517
233 518
235 519
235 520
237 521
237 522
239 523
239 524
240 525
241 526
241 527
242 528
242 529
242 530
245 531
247 532
248 533
248 534
249 535
250 536
251 537
252 538
252 539
253 540
255 541
256 542
257 543
257 544
258 545
265 546
266 547
266 548
267 549
268 550
270 551
270 552
270 553
271 554
274 555
274 556
275 557
275 558
277 559
278 560
279 561
279 562
280 563
281 564
282 565
283 566
284 567
284 568
286 569
288 570
288 571
289 572
290 573
291 574
291 575
292 576
293 577
294 578
295 579
296 580
297 581
297 582
297 583
