293 298
7 8 8 8 8 8 8 8 8 8 7 8 8 7 8 7 8 8 8 7 8 8 8 7 8 7 8 7 8 8 8 8 8 6 6 6 6 6 6 8 6 6 6 6 6 6 8 6 6 6 6 6 6 6 6 8 6 6 6 6 6 6 6 6 6 6 7 6 6 6 6 6 6 6 6 6 6 6 6 6 7 8 6 6 6 8 6 6 6 6 6 6 6 6 6 6 6 7 7 6 6 6 6 6 6 7 7 6 6 6 7 6 6 6 6 6 6 6 6 6 6 6 6 6 6 6 6 6 7 7 6 6 6 7 7 7 7 8 8 6 6 6 7 7 7 6 6 6 6 6 6 6 6 6 8 1 1 1 1 1 1 1 1 1 1 1 1 1 1 1 1 1 1 1 1 1 1 1 1 1 1 1 1 1 1 1 1 1 1 1 1 1 1 1 1 1 1 1 1 1 1 1 1 1 1 1 1 1 1 1 1 1 1 1 1 1 1 1 1 1 1 1 1 1 1 1 1 1 1 1 1 1 1 1 1 1 1 1 1 1 1 1 1 1 1 1 1 1 1 1 1 1 1 1 1 1 1 1 1 1 1 1 1 1 1 1 1 1 1 1 1 1 1 1 1 1 1 1 1 1 1 1 1 1 1 1 1 1 1 1 1 1 1
154 152
85 140
137 121
138 107
81 91
55 87
46 64
39 43
32 45
21 42
17 35
14 35
11 153
28 102
20 102
26 132
8 146
30 132
29 118
24 99
31 114
22 99
18 76
16 92
9 92
12 131
6 117
7 82
2 82
5 68
3 57
4 56
1 33
0 65
0 113
0 152
19 95
19 130
19 140
15 60
15 148
15 91
83 13
13 121
124 10
10 64
27 107
58 27
23 87
23 53
78 25
110 47
110 36
52 144
144 42
105 43
54 105
106 45
106 141
37 142
142 146
143 153
96 143
135 36
136 36
97 118
89 97
127 98
98 76
128 114
128 103
139 129
129 68
133 117
133 72
134 69
134 56
80 57
61 80
66 33
65 86
65 107
60 93
60 121
86 109
113 109
95 111
95 87
93 147
111 90
130 90
147 148
83 140
83 100
124 152
124 116
116 75
116 63
100 62
91 78
75 59
78 67
62 47
58 50
58 43
67 40
64 52
50 48
52 38
53 45
38 51
40 49
40 44
48 35
54 41
54 153
51 102
49 120
44 115
42 37
41 145
37 108
120 119
115 119
108 149
145 132
141 114
96 151
96 118
149 99
146 127
151 84
127 104
104 77
84 71
84 70
89 73
89 92
73 74
77 122
77 125
74 123
74 150
76 139
71 126
70 79
103 117
139 112
122 101
125 94
126 131
79 131
112 82
101 88
94 88
68 69
72 57
61 56
61 34
34 33
7 155
10 156
12 157
13 158
16 159
17 160
23 161
24 162
25 163
25 164
26 165
27 166
28 167
34 168
34 169
37 170
38 171
38 172
41 173
41 174
44 175
47 176
47 177
48 178
48 179
49 180
50 181
50 182
51 183
51 184
52 185
53 186
53 187
54 188
58 189
59 190
59 191
59 192
60 193
61 194
62 195
62 196
63 197
63 198
63 199
65 200
66 201
66 202
67 203
67 204
69 205
69 206
70 207
71 208
72 209
72 210
73 211
73 212
74 213
75 214
75 215
78 216
79 217
80 218
83 219
86 220
86 221
88 222
89 223
90 224
90 225
93 226
93 227
94 228
95 229
96 230
97 231
98 232
100 233
100 234
101 235
103 236
103 237
104 238
104 239
105 240
106 241
108 242
108 243
109 244
109 245
110 246
111 247
111 248
112 249
112 250
113 251
113 252
115 253
116 254
119 255
120 256
122 257
123 258
123 259
123 260
124 261
125 262
126 263
127 264
128 265
129 266
130 267
130 268
133 269
134 270
135 271
135 272
136 273
139 274
141 275
141 276
142 277
143 278
144 279
145 280
145 281
147 282
147 283
148 284
148 285
149 286
149 287
150 288
150 289
150 290
151 291
151 292
