638 648
6 7 7 7 7 7 7 7 7 7 8 7 8 7 8 8 8 8 8 7 8 8 8 8 7 8 8 8 7 8 7 8 8 8 7 8 8 8 8 8 7 8 8 8 7 8 8 7 8 8 8 7 8 8 7 8 8 7 7 7 8 6 6 6 6 6 6 6 6 6 6 6 6 6 6 6 6 8 6 6 6 6 6 8 8 6 6 6 6 8 6 8 6 6 8 6 6 6 6 6 6 6 6 6 8 6 6 6 6 8 6 6 6 8 6 6 6 6 6 6 6 6 6 6 6 6 6 6 6 6 6 6 6 6 6 6 6 6 6 6 6 6 6 6 6 6 6 6 6 6 6 6 6 8 8 6 6 6 6 6 6 6 6 6 6 6 6 6 6 6 8 8 6 6 6 6 6 6 6 6 6 6 6 6 8 8 6 8 8 6 6 6 6 6 6 6 7 7 7 7 6 6 6 6 6 6 6 8 6 6 6 7 7 7 7 6 6 6 6 7 6 6 6 6 6 7 6 6 6 6 8 6 6 6 6 6 7 6 6 6 6 6 7 6 6 6 6 6 6 7 6 6 7 7 7 6 7 8 6 6 7 6 7 7 7 6 6 6 6 6 6 6 6 6 6 6 6 6 6 6 7 7 6 6 6 6 6 7 7 6 6 6 7 6 6 6 7 6 7 6 6 6 6 6 6 6 6 6 8 6 6 6 6 6 6 7 7 6 7 7 6 8 6 8 8 16 1 1 1 1 1 1 1 1 1 1 1 1 1 1 1 1 1 1 1 1 1 1 1 1 1 1 1 1 1 1 1 1 1 1 1 1 1 1 1 1 1 1 1 1 1 1 1 1 1 1 1 1 1 1 1 1 1 1 1 1 1 1 1 1 1 1 1 1 1 1 1 1 1 1 1 1 1 1 1 1 1 1 1 1 1 1 1 1 1 1 1 1 1 1 1 1 1 1 1 1 1 1 1 1 1 1 1 1 1 1 1 1 1 1 1 1 1 1 1 1 1 1 1 1 1 1 1 1 1 1 1 1 1 1 1 1 1 1 1 1 1 1 1 1 1 1 1 1 1 1 1 1 1 1 1 1 1 1 1 1 1 1 1 1 1 1 1 1 1 1 1 1 1 1 1 1 1 1 1 1 1 1 1 1 1 1 1 1 1 1 1 1 1 1 1 1 1 1 1 1 1 1 1 1 1 1 1 1 1 1 1 1 1 1 1 1 1 1 1 1 1 1 1 1 1 1 1 1 1 1 1 1 1 1 1 1 1 1 1 1 1 1 1 1 1 1 1 1 1 1 1 1 1 1 1 1 1 1 1 1 1 1 1 1 1 1 1 1 1 1 1 1 1 1 1 1 1 1 1 1 1 1 1 1 1 1 1 1 1 1 1 1 1 1 1 1 1 1 1 1 1 1 1 1 1 1 1 1 1 1 1 1
325 152
325 135
324 164
323 202
308 190
321 155
184 195
185 189
207 235
257 269
230 232
187 227
188 140
170 128
171 120
153 117
154 137
94 108
89 78
84 82
77 67
109 107
104 103
91 67
83 69
113 62
60 0
49 286
45 175
35 182
29 182
52 220
48 270
22 220
36 283
21 291
14 291
56 176
17 165
33 119
27 200
32 243
39 217
20 234
55 314
26 216
25 216
38 224
23 193
43 193
16 306
53 301
31 275
42 275
50 157
37 172
46 146
41 150
10 127
12 114
15 61
18 61
13 201
13 215
13 164
11 183
11 174
11 190
7 202
123 7
4 151
4 136
4 189
5 259
5 238
5 269
250 2
2 227
9 155
317 9
290 3
3 117
6 195
284 6
1 235
302 1
311 8
8 120
57 232
134 57
209 40
40 78
285 54
54 108
162 59
59 128
44 246
44 111
34 140
34 87
28 137
112 28
90 51
51 107
47 86
19 79
19 0
30 82
64 30
58 85
58 303
97 24
24 286
110 264
264 103
292 111
219 95
262 69
255 262
263 111
297 287
287 270
251 288
288 283
213 233
214 175
214 237
260 303
256 303
298 266
298 180
318 241
223 319
319 165
279 211
211 119
212 176
142 212
252 144
252 177
141 253
253 217
276 315
315 234
316 200
178 316
289 280
280 314
271 281
281 224
198 177
199 177
196 203
196 240
268 197
197 301
296 181
296 240
242 306
261 254
254 157
156 249
249 146
122 236
236 150
138 225
201 179
201 202
179 228
228 215
183 221
183 155
164 250
221 173
250 129
173 174
151 139
151 195
139 116
123 218
123 235
129 299
116 136
259 304
259 232
190 290
304 274
290 247
274 238
218 194
218 307
299 246
247 204
189 209
317 273
317 140
269 311
209 267
311 295
227 285
273 126
273 115
204 186
285 163
284 282
284 137
302 160
302 128
267 105
295 92
282 158
162 159
162 120
163 124
160 130
186 86
158 98
158 80
159 81
159 96
134 73
134 82
124 85
130 74
117 79
105 101
105 76
92 100
92 75
108 90
90 88
78 97
74 95
73 67
97 71
112 99
112 69
88 102
87 103
100 65
75 70
101 63
76 68
102 72
110 107
110 66
99 106
66 322
65 62
70 62
63 93
68 93
72 233
64 206
64 175
106 182
0 297
322 208
297 294
286 251
251 313
294 244
208 241
255 231
255 220
313 205
244 309
244 266
231 210
270 223
205 291
309 180
309 300
223 305
210 272
210 149
283 279
180 167
305 258
237 176
279 169
300 192
258 144
272 121
149 148
167 133
192 133
165 141
141 145
121 132
148 132
142 226
142 200
119 276
145 320
276 243
226 312
320 245
320 239
217 271
312 216
271 166
178 314
178 248
289 234
289 191
245 229
239 265
166 203
191 310
248 193
229 222
265 222
203 181
310 306
224 268
268 277
277 278
278 275
301 261
261 293
293 152
157 156
156 172
146 122
122 147
147 168
168 161
168 143
150 138
138 127
161 118
143 125
118 114
125 114
131 61
1 326
2 327
3 328
6 329
7 330
8 331
9 332
10 333
12 334
15 335
19 336
21 337
23 338
24 339
26 340
28 341
30 342
31 343
32 344
34 345
35 346
37 347
40 348
44 349
47 350
47 351
51 352
52 353
54 354
57 355
58 356
59 357
63 358
64 359
65 360
66 361
66 362
68 363
70 364
71 365
71 366
71 367
72 368
72 369
73 370
73 371
74 372
74 373
75 374
76 375
77 376
79 377
79 378
80 379
80 380
80 381
81 382
81 383
81 384
85 385
85 386
86 387
86 388
87 389
87 390
88 391
88 392
90 393
93 394
95 395
95 396
96 397
96 398
96 399
97 400
98 401
98 402
98 403
99 404
99 405
100 406
101 407
102 408
102 409
106 410
106 411
110 412
112 413
113 414
115 415
115 416
115 417
116 418
116 419
118 420
121 421
122 422
123 423
124 424
124 425
125 426
126 427
126 428
126 429
127 430
127 431
129 432
129 433
130 434
130 435
131 436
131 437
131 438
132 439
133 440
134 441
135 442
135 443
135 444
136 445
136 446
138 447
139 448
139 449
141 450
142 451
143 452
144 453
144 454
145 455
145 456
147 457
147 458
148 459
149 460
151 461
152 462
152 463
156 464
158 465
159 466
160 467
160 468
161 469
162 470
163 471
163 472
166 473
166 474
167 475
169 476
169 477
169 478
172 479
172 480
173 481
173 482
174 483
174 484
178 485
179 486
179 487
181 488
183 489
186 490
186 491
191 492
191 493
192 494
194 495
194 496
194 497
196 498
197 499
198 500
198 501
199 502
201 503
204 504
204 505
205 506
205 507
206 508
206 509
206 510
208 511
208 512
209 513
211 514
212 515
213 516
213 517
214 518
215 519
215 520
218 521
219 522
219 523
221 524
221 525
222 526
223 527
225 528
225 529
226 530
226 531
228 532
228 533
229 534
231 535
231 536
233 537
233 538
236 539
237 540
237 541
238 542
238 543
239 544
240 545
241 546
241 547
242 548
242 549
243 550
243 551
245 552
246 553
246 554
247 555
247 556
248 557
248 558
249 559
250 560
251 561
252 562
253 563
254 564
255 565
256 566
258 567
258 568
259 569
260 570
260 571
261 572
262 573
263 574
264 575
265 576
266 577
267 578
267 579
268 580
271 581
272 582
273 583
274 584
274 585
276 586
277 587
277 588
278 589
278 590
279 591
280 592
281 593
282 594
282 595
284 596
285 597
287 598
288 599
289 600
290 601
292 602
292 603
293 604
293 605
294 606
294 607
295 608
295 609
297 610
298 611
299 612
299 613
300 614
302 615
304 616
304 617
305 618
305 619
307 620
307 621
307 622
310 623
310 624
311 625
312 626
312 627
313 628
313 629
315 630
316 631
317 632
318 633
318 634
319 635
322 636
322 637
